Read MPS format model from file dat/rmp/4node_4096_10.mps
Reading time = 0.16 seconds
: 4156 rows, 12434 columns, 389226 nonzeros
Gurobi Optimizer version 9.0.0 build v9.0.0rc2 (linux64)
Optimize a model with 4156 rows, 12434 columns and 389226 nonzeros
Model fingerprint: 0x2168fca2
Coefficient statistics:
  Matrix range     [1e-03, 2e+01]
  Objective range  [9e+00, 1e+04]
  Bounds range     [0e+00, 0e+00]
  RHS range        [1e+00, 8e+01]
Ordering time: 0.00s

Barrier statistics:
 AA' NZ     : 1.839e+05
 Factor NZ  : 2.299e+05 (roughly 9 MBytes of memory)
 Factor Ops : 1.454e+07 (less than 1 second per iteration)
 Threads    : 1

                  Objective                Residual
Iter       Primal          Dual         Primal    Dual     Compl     Time
   0   2.32137997e+07  0.00000000e+00  4.00e+04 2.40e+02  5.36e+04     0s
   1   1.21128220e+06 -1.75329854e+07  2.01e+03 1.51e+03  4.46e+03     0s
   2   6.34934637e+05 -1.46543962e+07  9.72e+02 1.24e+03  2.77e+03     0s
   3   1.93429498e+05 -8.85613632e+06  1.05e+02 5.91e+02  1.10e+03     0s
   4   1.41226155e+05 -1.46192267e+06  3.79e-09 8.11e+01  1.73e+02     0s
   5   8.99256474e+04 -2.24512312e+05  1.08e-08 1.38e+01  3.21e+01     0s
   6   3.36461023e+04 -9.43610761e+04  3.82e-09 5.85e+00  1.28e+01     0s
   7   2.19455482e+04 -5.11686375e+04  2.48e-09 3.15e+00  7.18e+00     0s
   8   2.22993117e+03 -6.75651944e+03  4.81e-10 2.18e-01  8.00e-01     0s
   9   6.86500833e+02 -4.44181314e+03  3.20e-10 1.03e-01  4.48e-01     0s
  10   2.11702624e+01 -3.17361550e+03  1.24e-09 6.07e-02  2.78e-01     0s
  11   2.55364163e+02 -2.09435281e+03  6.62e-10 2.26e-02  1.97e-01     0s
  12  -1.17154990e+02 -1.57539462e+03  4.22e-10 7.00e-03  1.20e-01     0s
  13  -1.81740062e+02 -4.66476206e+02  1.07e-09 5.14e-04  2.32e-02     0s
  14  -2.56116408e+02 -3.95262576e+02  1.26e-09 2.65e-04  1.13e-02     0s
  15  -2.91741917e+02 -4.57091804e+02  1.56e-09 1.34e-05  1.33e-02     1s
  16  -3.13494224e+02 -3.65132842e+02  5.33e-08 3.45e-07  4.15e-03     1s
  17  -3.22425500e+02 -3.66900113e+02  3.15e-07 2.06e-07  3.58e-03     1s
  18  -3.28830590e+02 -3.53382513e+02  9.55e-07 2.53e-07  1.97e-03     1s
  19  -3.31785270e+02 -3.51323945e+02  8.78e-07 1.42e-07  1.57e-03     1s
  20  -3.38631310e+02 -3.49159190e+02  3.75e-07 7.87e-08  8.47e-04     1s
  21  -3.46871488e+02 -3.47948655e+02  5.75e-08 5.38e-09  8.66e-05     1s
  22  -3.46871488e+02 -3.47948104e+02  1.16e-06 5.37e-09  8.66e-05     1s
  23  -3.46871516e+02 -3.47723525e+02  1.22e-06 1.75e-09  6.85e-05     1s
  24  -3.46871638e+02 -3.47589422e+02  1.82e-06 1.06e-09  5.77e-05     1s
  25  -3.46872010e+02 -3.47558408e+02  2.46e-06 4.75e-10  5.52e-05     1s
  26  -3.46872161e+02 -3.47540799e+02  2.08e-06 1.90e-10  5.38e-05     1s
  27  -3.46872762e+02 -3.47520850e+02  3.19e-06 1.13e-10  5.21e-05     1s
  28  -3.46873036e+02 -3.47521055e+02  3.57e-06 1.30e-09  5.21e-05     1s
  29  -3.46873357e+02 -3.47520096e+02  5.48e-06 1.13e-09  5.20e-05     1s
  30  -3.46875392e+02 -3.47518299e+02  6.80e-06 3.38e-10  5.17e-05     1s
  31  -3.46875421e+02 -3.47518337e+02  8.01e-06 3.38e-10  5.17e-05     1s
  32  -3.46876152e+02 -3.47518901e+02  8.77e-06 1.64e-10  5.17e-05     1s
  33  -3.46879732e+02 -3.47516777e+02  1.47e-05 1.02e-10  5.13e-05     1s
  34  -3.46885974e+02 -3.47516764e+02  2.68e-05 4.66e-11  5.08e-05     1s
  35  -3.46895411e+02 -3.47515471e+02  3.63e-05 3.02e-11  4.99e-05     1s
  36  -3.46900066e+02 -3.47515319e+02  8.64e-05 4.13e-11  4.96e-05     1s
  37  -3.46922477e+02 -3.47514707e+02  1.80e-04 8.40e-11  4.76e-05     1s
  38  -3.47030697e+02 -3.47517908e+02  3.07e-04 1.46e-11  3.94e-05     1s
  39  -3.47165057e+02 -3.47514116e+02  5.32e-04 2.03e-11  2.85e-05     1s
  40  -3.47218557e+02 -3.47513408e+02  6.25e-04 1.46e-11  2.43e-05     1s
  41  -3.47303925e+02 -3.47513306e+02  7.38e-04 1.46e-11  1.79e-05     1s
  42  -3.47475636e+02 -3.47514459e+02  9.35e-04 2.91e-11  3.98e-06     1s
  43  -3.47487066e+02 -3.47514456e+02  1.21e-03 2.91e-11  3.97e-06     2s
  44  -3.47486840e+02 -3.47526424e+02  6.34e-04 4.37e-11  2.56e-06     2s
  45  -3.47543886e+02 -3.47520826e+02  1.32e-03 1.46e-11  1.67e-06     2s
  46  -3.47531395e+02 -3.47518944e+02  1.42e-03 1.46e-11  1.29e-06     2s
  47  -3.47491229e+02 -3.47518751e+02  8.29e-04 2.91e-11  9.48e-07     2s
  48  -3.47496961e+02 -3.47513004e+02  7.63e-04 2.91e-11  4.02e-07     2s
  49  -3.47507290e+02 -3.47512675e+02  6.68e-04 2.91e-11  2.59e-07     2s
  50  -3.47507599e+02 -3.47512675e+02  6.69e-04 2.91e-11  2.58e-07     2s
  51  -3.47510887e+02 -3.47513160e+02  1.12e-03 4.37e-11  2.54e-07     2s
  52  -3.47513217e+02 -3.47513043e+02  7.16e-04 1.46e-11  1.38e-07     2s
  53  -3.47514662e+02 -3.47512747e+02  6.22e-04 1.46e-11  1.02e-07     2s
  54  -3.47516783e+02 -3.47511631e+02  5.50e-04 1.46e-11  8.88e-08     2s
  55  -3.47516775e+02 -3.47511593e+02  5.55e-04 1.46e-11  8.66e-08     2s
  56  -3.47531546e+02 -3.47511591e+02  7.32e-04 1.46e-11  3.65e-08     2s
  57  -3.47550729e+02 -3.47511810e+02  9.07e-04 1.46e-11  3.04e-08     2s
  58  -3.47518102e+02 -3.47511770e+02  1.68e-03 1.46e-11  1.29e-11     2s
  59  -3.47521074e+02 -3.47512089e+02  1.64e-03 1.46e-11  7.01e-10     2s
  60  -3.47521739e+02 -3.47512053e+02  1.62e-03 2.91e-11  7.60e-10     2s
  61  -3.47502220e+02 -3.47512106e+02  1.15e-03 2.91e-11  9.10e-10     2s
  62  -3.47488920e+02 -3.47511974e+02  9.38e-04 1.82e-12  3.26e-09     2s
  63  -3.47518090e+02 -3.47511974e+02  1.68e-03 2.91e-11  4.07e-14     2s

Barrier performed 63 iterations in 2.06 seconds
Sub-optimal termination - objective -3.46871488e+02

Solve time: 2.064746813
Barrier iterations: 63
